p cnf 26 65
a 10 4 0
e 1 2 3 5 6 7 8 9 11 12 13 14 15 16 17 18 19 20 21 22 23 24 25 26 0
-5 2 0
-5 4 0
-2 -4 5 0
-6 -3 0
-6 -5 0
3 5 6 0
7 -2 0
7 6 0
2 -6 -7 0
8 -7 0
8 -5 0
7 5 -8 0
-1 -8 -9 0
1 8 -9 0
-1 8 9 0
1 -8 9 0
-11 -10 0
-11 5 0
10 -5 11 0
-12 9 0
-12 -11 0
-9 11 12 0
-13 -14 -15 0
13 14 -15 0
-13 14 15 0
13 -14 15 0
16 -15 0
16 6 0
15 -6 -16 0
-12 -16 -17 0
12 16 -17 0
-12 16 17 0
12 -16 17 0
-18 14 0
-18 -4 0
-14 4 18 0
19 15 0
19 18 0
-15 -18 -19 0
-20 -2 0
-20 -10 0
2 10 20 0
-21 19 0
-21 -20 0
-19 20 21 0
-22 17 0
-22 -21 0
-17 21 22 0
-14 23 -24 0
14 -23 -24 0
-14 -23 24 0
14 23 24 0
-25 13 0
-25 24 0
-13 -24 25 0
26 22 0
26 -25 0
-22 25 -26 0
-1 13 11 -8 2 18 0
4 -18 -12 0
17 -1 24 15 -11 0
6 24 -14 0
4 -7 10 -6 -11 -14 0
-16 -17 26 4 22 -15 0
26 0
